Data path: /scratch/opt/lxu/CFLG/benchmarks/random_A
Instance: r_15_0.3_25.txt
Result path: /scratch/opt/lxu/CFLG/results/random_A
Solver: Gurobi
Time limit: 7200
Formulation: LEFPI
Cover: Small
julia --project=. src/main.jl /scratch/opt/lxu/CFLG/benchmarks/random_A r_15_0.3_25.txt /scratch/opt/lxu/CFLG/results/random_A Gurobi 7200 LEFPI Small
The latest version of Julia in the `release` channel is 1.11.5+0.x64.linux.gnu. You currently have `1.11.4+0.x64.linux.gnu` installed. Run:

  juliaup update

in your terminal shell to install Julia 1.11.5+0.x64.linux.gnu and update the `release` channel to that version.
/scratch/opt/lxu/CFLG/benchmarks/random_A Gurobi 7200.0 /scratch/opt/lxu/CFLG/results/random_A r_15_0.3_25.txt LEFPI Small
/scratch/opt/lxu/CFLG/benchmarks/random_A/r_15_0.3_25.txt

 read graph
data loaded


after absorb:10 15

max_piece:16
problem_graph/original graph: node: 11/15 edge: 21/25 dlt: 0.1520455682071622 break_avg_len: 0.7240265152722012 break_max_len: 2.218773202861688Set parameter TokenServer to value "solice01.zib.de"
Set parameter Threads to value 1
Set parameter OutputFlag to value 1
Gurobi Optimizer version 12.0.1 build v12.0.1rc0 (linux64 - "Debian GNU/Linux 12 (bookworm)")

CPU model: Intel(R) Xeon(R) Gold 5122 CPU @ 3.60GHz, instruction set [SSE2|AVX|AVX2|AVX512]
Thread count: 8 physical cores, 16 logical processors, using up to 1 threads

Non-default parameters:
Threads  1

Optimize a model with 32 rows, 63 columns and 105 nonzeros
Model fingerprint: 0xf29456f3
Coefficient statistics:
  Matrix range     [1e+00, 1e+00]
  Objective range  [1e+00, 1e+00]
  Bounds range     [1e+00, 1e+00]
  RHS range        [0e+00, 0e+00]
Presolve removed 32 rows and 63 columns
Presolve time: 0.00s
Presolve: All rows and columns removed
Iteration    Objective       Primal Inf.    Dual Inf.      Time
       0   -0.0000000e+00   0.000000e+00   0.000000e+00      0s

Solved in 0 iterations and 0.00 seconds (0.00 work units)
Optimal objective -0.000000000e+00

User-callback calls 36, time in user-callback 0.00 sec
elapsed CPU time: 0.952486 seconds
Set parameter TokenServer to value "solice01.zib.de"
Set parameter Threads to value 1
Set parameter OutputFlag to value 1
Set parameter MIPGap to value 0.0001
Set parameter MIPGapAbs to value 1
Set parameter TimeLimit to value 7199.047514

 more cuts:falsefalse
0 0
formulation:LEFPI19 2 1

 model loaded

Gurobi Optimizer version 12.0.1 build v12.0.1rc0 (linux64 - "Debian GNU/Linux 12 (bookworm)")

CPU model: Intel(R) Xeon(R) Gold 5122 CPU @ 3.60GHz, instruction set [SSE2|AVX|AVX2|AVX512]
Thread count: 8 physical cores, 16 logical processors, using up to 1 threads

Non-default parameters:
TimeLimit  7199.047514
MIPGapAbs  1
Threads  1

Optimize a model with 247 rows, 191 columns and 458 nonzeros
Model fingerprint: 0x5d7940b4
Model has 67 simple general constraints
  67 INDICATOR
Variable types: 53 continuous, 138 integer (138 binary)
Coefficient statistics:
  Matrix range     [1e-02, 1e+00]
  Objective range  [1e+00, 1e+00]
  Bounds range     [1e-01, 2e+00]
  RHS range        [1e-02, 2e+00]
  GenCon rhs range [2e-07, 2e+00]
  GenCon coe range [1e+00, 1e+00]
Presolve removed 119 rows and 71 columns
Presolve time: 0.00s
Presolved: 128 rows, 120 columns, 409 nonzeros
Variable types: 51 continuous, 69 integer (69 binary)
Found heuristic solution: objective 47.0000000

Root relaxation: objective 4.100000e+01, 100 iterations, 0.00 seconds (0.00 work units)

    Nodes    |    Current Node    |     Objective Bounds      |     Work
 Expl Unexpl |  Obj  Depth IntInf | Incumbent    BestBd   Gap | It/Node Time

     0     0   41.00000    0   23   47.00000   41.00000  12.8%     -    0s
H    0     0                      46.0000000   41.00000  10.9%     -    0s
     0     0   41.50103    0   33   46.00000   41.50103  9.78%     -    0s
     0     0   43.00000    0   25   46.00000   43.00000  6.52%     -    0s
     0     0   43.00000    0   25   46.00000   43.00000  6.52%     -    0s
     0     0   43.12460    0   24   46.00000   43.12460  6.25%     -    0s
     0     0   43.27150    0   24   46.00000   43.27150  5.93%     -    0s
     0     0   43.50000    0   21   46.00000   43.50000  5.43%     -    0s
     0     0   43.50000    0   23   46.00000   43.50000  5.43%     -    0s
     0     0   43.50000    0   16   46.00000   43.50000  5.43%     -    0s
     0     0   43.50000    0   21   46.00000   43.50000  5.43%     -    0s
     0     0   43.50000    0   16   46.00000   43.50000  5.43%     -    0s
     0     0   43.50000    0   18   46.00000   43.50000  5.43%     -    0s
     0     0   43.50000    0   14   46.00000   43.50000  5.43%     -    0s
     0     0   43.50000    0   22   46.00000   43.50000  5.43%     -    0s
     0     0   43.50000    0   20   46.00000   43.50000  5.43%     -    0s
     0     0   43.50000    0   20   46.00000   43.50000  5.43%     -    0s
     0     2   44.00000    0   20   46.00000   44.00000  4.35%     -    0s

Cutting planes:
  Gomory: 1
  Cover: 51
  Implied bound: 12
  Clique: 1
  MIR: 47
  StrongCG: 3
  Inf proof: 5
  RLT: 10
  Relax-and-lift: 6
  BQP: 7

Explored 614 nodes (7901 simplex iterations) in 0.24 seconds (0.12 work units)
Thread count was 1 (of 16 available processors)

Solution count 2: 46 47 

Optimal solution found (tolerance 1.00e-04)
Best objective 4.600000000000e+01, best bound 4.500000000000e+01, gap 2.1739%

User-callback calls 1936, time in user-callback 0.00 sec

 sepatime0
46.0Stat(MathOptInterface.OPTIMAL, 46.0, 45.00000000000001, 0.021739130434782455, 0.0, 0.952486, 0.23889708518981934, 614, Main.CFLG.LEFPI, "", #undef)
